50
    81    77    10    28    32    38    42     3    26    89    82    89     7    21    19    84    37    62     8    76    90    84    72    41    58    97    95    51    49    53    32    62    85    44   100    27     4     4    83    86    61     5    30    69    25    62    55   100    81    30
     8     7     9     9     8    10     2     9     8     5     9     4     5     5     9     9     1     8     2     1     9     3     9     9     3     2     7     3     6     8     7     8     8     7     6     9     5     8     3     5     6     9     5     4     4     5     1    10     9     8
  1008  1135  1264  1070   954   922   812  1126   961   806  1015  1298  1267  1028   896  1254  1008  1228  1063  1251  1273  1164  1079  1119  1029  1152   801  1113  1225  1194   925   897  1250   897  1152   919   928  1233  1266   877  1191  1294   880  1083   801  1110  1041   937  1244  1045
